NAME : iia10
COMMENT : 10 ciudades en circunferencia radio 1000
TYPE : TSP
DIMENSION: 10
EDGE_WEIGHT_TYPE : EUC_2D
NODE_COORD_SECTION
1 1133.5612396259833 8.959438131026559
2 1991.5114763949923 1130.0191992631183
3 332.3410776877855 255.53269819494938
4 992.4846430880416 0.028240693525503957
5 0.043998615863642954 1009.3805807842192
6 1157.6963200385755 1987.4876559462864
7 1320.5694895363854 1947.2250009255358
8 1066.1181473607896 2.1881988122324856
9 1486.6418618301418 1873.6015672573471
10 1849.8712344720905 1526.9904029646887
EOF
